sifdecoder -A pc64.lnx.gfo -st   AUG3D

 Problem name: AUG3D

 Double precision version will be formed

 The objective function uses 22743 nonlinear groups
 
 There are 8000 linear equality constraints
 
 There are 27543 free variables
 
 
 File successfully decoded
 CUTEST: tools (double precision version) compiled successfully
 CUTEst: ipopt (double precision version) compiled successfully

******************************************************************************
This program contains Ipopt, a library for large-scale nonlinear optimization.
 Ipopt is released as open source code under the Eclipse Public License (EPL).
         For more information visit http://projects.coin-or.org/Ipopt
******************************************************************************

This is Ipopt version trunk, running with linear solver ma57.

Number of nonzeros in equality constraint Jacobian...:    50286
Number of nonzeros in inequality constraint Jacobian.:        0
Number of nonzeros in Lagrangian Hessian.............:    22743

Total number of variables............................:    27543
                     variables with only lower bounds:        0
                variables with lower and upper bounds:        0
                     variables with only upper bounds:        0
Total number of equality constraints.................:     8000
Total number of inequality constraints...............:        0
        inequality constraints with only lower bounds:        0
   inequality constraints with lower and upper bounds:        0
        inequality constraints with only upper bounds:        0

iter    objective    inf_pr   inf_du lg(mu)  ||d||  lg(rg) alpha_du alpha_pr  ls
   0  1.1371500e+04 1.00e+00 1.00e+00  -1.0 0.00e+00    -  0.00e+00 0.00e+00   0
Reallocating memory for MA57: lfact (3492431)
Reallocating memory for MA57: lfact (5629970)
Reallocating memory for MA57: lfact (9424754)
Reallocating memory for MA57: lfact (20483792)
   1  2.4561486e+04 2.66e-15 5.84e-04  -1.7 5.84e+00  -4.0 1.00e+00 1.00e+00h  1
   2  2.4561486e+04 1.89e-15 8.35e-09  -5.7 2.51e-04  -4.5 1.00e+00 1.00e+00f  1

Number of Iterations....: 2

                                   (scaled)                 (unscaled)
Objective...............:   2.4561485969889774e+04    2.4561485969889774e+04
Dual infeasibility......:   8.3518486480873796e-09    8.3518486480873796e-09
Constraint violation....:   1.8873791418627661e-15    1.8873791418627661e-15
Complementarity.........:   0.0000000000000000e+00    0.0000000000000000e+00
Overall NLP error.......:   8.3518486480873796e-09    8.3518486480873796e-09


Number of objective function evaluations             = 3
Number of objective gradient evaluations             = 3
Number of equality constraint evaluations            = 3
Number of inequality constraint evaluations          = 0
Number of equality constraint Jacobian evaluations   = 3
Number of inequality constraint Jacobian evaluations = 0
Number of Lagrangian Hessian evaluations             = 2
Total CPU secs in IPOPT (w/o function evaluations)   =     14.401
Total CPU secs in NLP function evaluations           =      0.052

EXIT: Optimal Solution Found.

************************ CUTEst statistics ************************


 Package used            :  IPOPT
 Problem                 :  AUG3D     
 # variables             =           27543
 # constraints           =            8000
 # objective functions   =        0.7000000E+01
 # objective gradients   =        0.4000000E+01
 # objective Hessians    =        0.3000000E+01
 # Hessian-vector prdct  =        0.0000000E+00
 # constraints functions =        0.8000000E+01
 # constraints gradients =        0.5000000E+01
 # constraints Hessians  =        0.3000000E+01
 Exit code               =               0
 Final f                 =        2.4561485969889774D+04
 Bounds feasibility      =        0.0000000000000000D+00
 Set up time             =            0.70 seconds
 Solve time              =           28.70 seconds


******************************************************************

